(set-logic QF_S)
(declare-fun var0 () String)
(declare-fun var1 () String)
(declare-fun var2 () String)
(declare-fun var3 () String)
(declare-fun var4 () Int)
(declare-fun var5 () Int)
(declare-fun var6 () Int)
(declare-fun var7 () Int)
(assert (str.contains (str.replace var0 var1 var2) (str.substr var3 var4 var5)))
(assert (str.prefixof (str.substr var2 var6 var7) (str.substr var0 var7 var4)))
(assert (str.suffixof (str.at "I`X;_o" var7) (str.substr (str.replace var0 var1 var3) (str.to.int var2) (str.to.int var3))))
(assert (>= (str.to.int var1) (str.len var2)))
(check-sat)